treewidth/data/WheelGraph_100.td
c width = 3, time = 3.549111
s td 97 4 100
b 1 1 67 69 70
b 2 1 67 68 70
b 3 1 32 67 68
b 4 1 32 50 67
b 5 1 50 59 67
b 6 1 59 63 67
b 7 1 63 65 67
b 8 1 65 66 67
b 9 1 63 64 65
b 10 1 59 61 63
b 11 1 61 62 63
b 12 1 59 60 61
b 13 1 50 54 59
b 14 1 54 56 59
b 15 1 56 58 59
b 16 1 54 55 56
b 17 1 50 52 54
b 18 1 52 53 54
b 19 1 50 51 52
b 20 1 32 41 50
b 21 1 41 45 50
b 22 1 45 48 50
b 23 1 48 49 50
b 24 1 45 47 48
b 25 1 41 43 45
b 26 1 43 44 45
b 27 1 41 42 43
b 28 1 32 37 41
b 29 1 37 39 41
b 30 1 39 40 41
b 31 1 37 38 39
b 32 1 32 34 37
b 33 1 34 36 37
b 34 1 32 33 34
b 35 1 15 32 68
b 36 1 15 23 32
b 37 1 23 28 32
b 38 1 28 30 32
b 39 1 30 31 32
b 40 1 28 29 30
b 41 1 23 26 28
b 42 1 26 27 28
b 43 1 23 25 26
b 44 1 15 19 23
b 45 1 19 21 23
b 46 1 21 22 23
b 47 1 19 20 21
b 48 1 15 17 19
b 49 1 17 18 19
b 50 1 15 16 17
b 51 1 6 15 68
b 52 1 6 10 15
b 53 1 10 12 15
b 54 1 12 14 15
b 55 1 10 11 12
b 56 1 6 8 10
b 57 1 8 9 10
b 58 1 6 7 8
b 59 1 6 68 90
b 60 1 68 79 90
b 61 1 4 6 90
b 62 1 4 5 6
b 63 1 3 4 90
b 64 1 68 70 87
b 65 1 70 78 87
b 66 1 78 83 87
b 67 1 83 85 87
b 68 1 85 86 87
b 69 1 83 84 85
b 70 1 78 81 83
b 71 1 81 82 83
b 72 1 78 80 81
b 73 1 70 74 78
b 74 1 74 76 78
b 75 1 76 77 78
b 76 1 74 75 76
b 77 1 70 72 74
b 78 1 72 73 74
b 79 1 70 71 72
b 80 1 68 87 96
b 81 1 87 92 96
b 82 1 92 94 96
b 83 1 94 95 96
b 84 1 92 93 94
b 85 1 87 89 92
b 86 1 89 91 92
b 87 1 87 88 89
b 88 1 68 96 100
b 89 1 96 98 100
b 90 1 98 99 100
b 91 1 96 97 98
b 92 1 35 68 100
b 93 1 35 57 68
b 94 1 35 46 57
b 95 1 13 35 100
b 96 1 13 24 35
b 97 1 2 13 100
2 3
3 4
4 5
5 6
6 7
7 8
7 9
6 10
10 11
10 12
5 13
13 14
14 15
14 16
13 17
17 18
17 19
4 20
20 21
21 22
22 23
22 24
21 25
25 26
25 27
20 28
28 29
29 30
29 31
28 32
32 33
32 34
3 35
35 36
36 37
37 38
38 39
38 40
37 41
41 42
41 43
36 44
44 45
45 46
45 47
44 48
48 49
48 50
35 51
51 52
52 53
53 54
53 55
52 56
56 57
56 58
51 59
59 60
59 61
61 62
61 63
2 64
64 65
65 66
66 67
67 68
67 69
66 70
70 71
70 72
65 73
73 74
74 75
74 76
73 77
77 78
77 79
64 80
80 81
81 82
82 83
82 84
81 85
85 86
85 87
80 88
88 89
89 90
89 91
88 92
92 93
93 94
92 95
95 96
95 97
1 2
